Maximize
 obj: 0 X1
Subject To
 c1:
  + 1 X34 + 1 X64 + 1 X69 + 1 X83 + 1 X81 + 1 X8 + 1 X32 + 1 X47
  + 1 X4 + 1 X15 + 1 X93
  <= 1
 c2:
  + 1 X84 + 1 X82 + 1 X10 + 1 X96 + 1 X97 + 1 X1 + 1 X51 + 1 X29
  + 1 X99 + 1 X45 + 1 X2 + 1 X19
  <= 1
 c3:
  + 1 X5 + 1 X39 + 1 X10 + 1 X34 + 1 X85 + 1 X100 + 1 X86 + 1 X41
  + 1 X80 + 1 X23 + 1 X70 + 1 X20 + 1 X14 + 1 X33 + 1 X59
  <= 1
 c4:
  + 1 X42 + 1 X13 + 1 X29 + 1 X12 + 1 X85 + 1 X80 + 1 X16 + 1 X86
  + 1 X17 + 1 X61 + 1 X37 + 1 X69 + 1 X3 + 1 X89 + 1 X71 + 1 X57
  + 1 X100 + 1 X55 + 1 X98 + 1 X50
  <= 1
 c5:
  + 1 X47 + 1 X49 + 1 X61 + 1 X87 + 1 X31 + 1 X17 + 1 X16 + 1 X74
  + 1 X91
  <= 1
 c6:
  + 1 X55 + 1 X77 + 1 X6 + 1 X83 + 1 X95 + 1 X33
  <= 1
 c7:
  + 1 X15 + 1 X54 + 1 X31 + 1 X35 + 1 X37 + 1 X100 + 1 X57 + 1 X69
  + 1 X78 + 1 X39 + 1 X84 + 1 X43 + 1 X62 + 1 X32
  <= 1
 c8:
  + 1 X12 + 1 X9 + 1 X39 + 1 X51 + 1 X11 + 1 X83 + 1 X23 + 1 X81
  + 1 X92 + 1 X46
  <= 1
 c9:
  + 1 X33 + 1 X61 + 1 X14 + 1 X8 + 1 X38 + 1 X73
  <= 1
 c10:
  + 1 X70 + 1 X88 + 1 X15 + 1 X48 + 1 X42 + 1 X59 + 1 X86 + 1 X97
  + 1 X24 + 1 X65 + 1 X35 + 1 X96 + 1 X60 + 1 X100 + 1 X46 + 1 X87
  + 1 X72 + 1 X43
  <= 1
 c11:
  + 1 X46 + 1 X31 + 1 X86 + 1 X78 + 1 X95 + 1 X75 + 1 X63 + 1 X70
  + 1 X73 + 1 X30 + 1 X38
  <= 1
 c12:
  + 1 X3 + 1 X49 + 1 X90 + 1 X77 + 1 X60 + 1 X4 + 1 X80 + 1 X14
  + 1 X58 + 1 X79 + 1 X76
  <= 1
 c13:
  + 1 X93 + 1 X19 + 1 X8 + 1 X7 + 1 X76 + 1 X79 + 1 X72 + 1 X35
  + 1 X11 + 1 X1 + 1 X16 + 1 X82 + 1 X58 + 1 X46 + 1 X31 + 1 X81
  + 1 X95 + 1 X9 + 1 X60 + 1 X49
  <= 1
 c14:
  + 1 X10 + 1 X62
  <= 1
 c15:
  + 1 X87 + 1 X49 + 1 X32 + 1 X48 + 1 X78 + 1 X10 + 1 X54 + 1 X7
  + 1 X75 + 1 X5 + 1 X22 + 1 X97 + 1 X20 + 1 X28
  <= 1
 c16:
  + 1 X57 + 1 X18 + 1 X78
  <= 1
 c17:
  + 1 X46 + 1 X94 + 1 X41 + 1 X92 + 1 X40 + 1 X85 + 1 X30 + 1 X68
  + 1 X49 + 1 X91 + 1 X2 + 1 X50
  <= 1
 c18:
  + 1 X23 + 1 X5 + 1 X80 + 1 X3 + 1 X71 + 1 X41 + 1 X72 + 1 X20
  + 1 X79 + 1 X60 + 1 X70 + 1 X18 + 1 X94 + 1 X97 + 1 X19 + 1 X86
  <= 1
 c19:
  + 1 X13 + 1 X52 + 1 X4 + 1 X92 + 1 X55 + 1 X36 + 1 X59 + 1 X60
  + 1 X47 + 1 X27 + 1 X25 + 1 X94 + 1 X87 + 1 X79 + 1 X6 + 1 X43
  + 1 X31 + 1 X40 + 1 X88 + 1 X97
  <= 1
 c20:
  + 1 X84 + 1 X56
  <= 1
 obj1:
  + 100 X1 + 45 X2 + 85 X3 + 1 X4 + 93 X5 + 15 X6 + 35 X7 + 7 X8
  + 33 X9 + 51 X10 + 20 X11 + 77 X12 + 13 X13 + 30 X14 + 22 X15 + 15 X16
  + 6 X17 + 37 X18 + 8 X19 + 60 X20 + 14 X21 + 37 X22 + 27 X23 + 21 X24
  + 24 X25 + 74 X26 + 21 X27 + 46 X28 + 4 X29 + 63 X30 + 30 X31 + 68 X32
  + 60 X33 + 88 X34 + 85 X35 + 93 X36 + 79 X37 + 53 X38 + 70 X39 + 41 X40
  + 83 X41 + 20 X42 + 22 X43 + 25 X44 + 10 X45 + 19 X46 + 95 X47 + 92 X48
  + 29 X49 + 81 X50 + 81 X51 + 95 X52 + 52 X53 + 79 X54 + 84 X55 + 47 X56
  + 7 X57 + 93 X58 + 46 X59 + 26 X60 + 33 X61 + 10 X62 + 85 X63 + 58 X64
  + 64 X65 + 95 X66 + 59 X67 + 6 X68 + 95 X69 + 65 X70 + 5 X71 + 45 X72
  + 26 X73 + 43 X74 + 41 X75 + 89 X76 + 63 X77 + 14 X78 + 54 X79 + 47 X80
  + 88 X81 + 34 X82 + 80 X83 + 68 X84 + 6 X85 + 65 X86 + 10 X87 + 38 X88
  + 24 X89 + 7 X90 + 95 X91 + 72 X92 + 90 X93 + 5 X94 + 68 X95 + 61 X96
  + 70 X97 + 11 X98 + 79 X99 + 85 X100
  >= 1
 obj2:
  + 90 X1 + 26 X2 + 69 X3 + 74 X4 + 75 X5 + 68 X6 + 28 X7 + 70 X8
  + 84 X9 + 77 X10 + 22 X11 + 14 X12 + 3 X13 + 46 X14 + 98 X15 + 24 X16
  + 3 X17 + 14 X18 + 52 X19 + 69 X20 + 87 X21 + 16 X22 + 67 X23 + 78 X24
  + 5 X25 + 98 X26 + 97 X27 + 22 X28 + 38 X29 + 85 X30 + 44 X31 + 27 X32
  + 45 X33 + 80 X34 + 16 X35 + 85 X36 + 24 X37 + 25 X38 + 97 X39 + 12 X40
  + 76 X41 + 17 X42 + 4 X43 + 34 X44 + 77 X45 + 15 X46 + 50 X47 + 52 X48
  + 25 X49 + 39 X50 + 21 X51 + 86 X52 + 63 X53 + 20 X54 + 35 X55 + 29 X56
  + 33 X57 + 38 X58 + 27 X59 + 14 X60 + 58 X61 + 34 X62 + 33 X63 + 14 X64
  + 54 X65 + 31 X66 + 90 X67 + 18 X68 + 44 X69 + 48 X70 + 92 X71 + 60 X72
  + 89 X73 + 51 X74 + 30 X75 + 91 X76 + 8 X77 + 18 X78 + 99 X79 + 57 X80
  + 97 X81 + 89 X82 + 93 X83 + 41 X84 + 84 X85 + 36 X86 + 43 X87 + 17 X88
  + 53 X89 + 8 X90 + 16 X91 + 74 X92 + 38 X93 + 77 X94 + 2 X95 + 83 X96
  + 31 X97 + 48 X98 + 4 X99 + 53 X100
  >= 2
 obj3:
  + 55 X1 + 38 X2 + 3 X3 + 47 X4 + 46 X5 + 96 X6 + 3 X7 + 46 X8
  + 22 X9 + 49 X10 + 35 X11 + 43 X12 + 59 X13 + 34 X14 + 88 X15 + 72 X16
  + 65 X17 + 34 X18 + 62 X19 + 71 X20 + 65 X21 + 84 X22 + 36 X23 + 34 X24
  + 42 X25 + 51 X26 + 12 X27 + 38 X28 + 63 X29 + 8 X30 + 48 X31 + 100 X32
  + 84 X33 + 2 X34 + 92 X35 + 9 X36 + 57 X37 + 47 X38 + 28 X39 + 3 X40
  + 5 X41 + 14 X42 + 35 X43 + 72 X44 + 51 X45 + 6 X46 + 86 X47 + 17 X48
  + 46 X49 + 66 X50 + 21 X51 + 38 X52 + 65 X53 + 93 X54 + 97 X55 + 23 X56
  + 81 X57 + 37 X58 + 24 X59 + 77 X60 + 68 X61 + 8 X62 + 40 X63 + 48 X64
  + 10 X65 + 51 X66 + 86 X67 + 73 X68 + 75 X69 + 7 X70 + 89 X71 + 33 X72
  + 93 X73 + 64 X74 + 66 X75 + 51 X76 + 33 X77 + 8 X78 + 32 X79 + 91 X80
  + 13 X81 + 70 X82 + 12 X83 + 67 X84 + 37 X85 + 51 X86 + 93 X87 + 68 X88
  + 16 X89 + 34 X90 + 20 X91 + 25 X92 + 20 X93 + 97 X94 + 61 X95 + 14 X96
  + 59 X97 + 49 X98 + 66 X99 + 79 X100
  >= 3
 obj4:
  + 33 X1 + 86 X2 + 69 X3 + 88 X4 + 2 X5 + 27 X6 + 72 X7 + 49 X8
  + 74 X9 + 56 X10 + 11 X11 + 89 X12 + 74 X13 + 27 X14 + 19 X15 + 86 X16
  + 62 X17 + 43 X18 + 80 X19 + 4 X20 + 78 X21 + 80 X22 + 45 X23 + 26 X24
  + 70 X25 + 44 X26 + 99 X27 + 52 X28 + 44 X29 + 36 X30 + 31 X31 + 9 X32
  + 66 X33 + 23 X34 + 8 X35 + 98 X36 + 22 X37 + 83 X38 + 90 X39 + 54 X40
  + 7 X41 + 97 X42 + 7 X43 + 92 X44 + 40 X45 + 88 X46 + 20 X47 + 88 X48
  + 67 X49 + 39 X50 + 15 X51 + 82 X52 + 80 X53 + 53 X54 + 42 X55 + 72 X56
  + 11 X57 + 95 X58 + 97 X59 + 16 X60 + 56 X61 + 92 X62 + 55 X63 + 54 X64
  + 22 X65 + 54 X66 + 92 X67 + 10 X68 + 49 X69 + 9 X70 + 10 X71 + 2 X72
  + 62 X73 + 80 X74 + 6 X75 + 59 X76 + 42 X77 + 32 X78 + 50 X79 + 49 X80
  + 76 X81 + 11 X82 + 91 X83 + 94 X84 + 57 X85 + 78 X86 + 8 X87 + 22 X88
  + 79 X89 + 79 X90 + 74 X91 + 52 X92 + 2 X93 + 78 X94 + 80 X95 + 85 X96
  + 86 X97 + 53 X98 + 15 X99 + 93 X100
  >= 4
Binary
 X1
 X2
 X3
 X4
 X5
 X6
 X7
 X8
 X9
 X10
 X11
 X12
 X13
 X14
 X15
 X16
 X17
 X18
 X19
 X20
 X21
 X22
 X23
 X24
 X25
 X26
 X27
 X28
 X29
 X30
 X31
 X32
 X33
 X34
 X35
 X36
 X37
 X38
 X39
 X40
 X41
 X42
 X43
 X44
 X45
 X46
 X47
 X48
 X49
 X50
 X51
 X52
 X53
 X54
 X55
 X56
 X57
 X58
 X59
 X60
 X61
 X62
 X63
 X64
 X65
 X66
 X67
 X68
 X69
 X70
 X71
 X72
 X73
 X74
 X75
 X76
 X77
 X78
 X79
 X80
 X81
 X82
 X83
 X84
 X85
 X86
 X87
 X88
 X89
 X90
 X91
 X92
 X93
 X94
 X95
 X96
 X97
 X98
 X99
 X100
End
